SDVRP instances/custom_instances/p02_26_split0.vrp
NAME:p02_26_split
BEST_KNOWN: 0
COMMENT: 0
DIMENSION: 382
CAPACITY: 140
EDGE_WEIGHT_FORMAT: FUNCTION
EDGE_WEIGHT_TYPE: EXACT_2D
NODE_COORD_SECTION
1 0.00000 0.00000
2 46 24
3 46 24
4 46 24
5 3 -27
6 3 -27
7 3 -27
8 3 -27
9 3 -27
10 22 44
11 22 44
12 22 44
13 22 44
14 11 -15
15 11 -15
16 11 -15
17 -39 -2
18 -39 -2
19 -39 -2
20 -39 -2
21 -39 -2
22 -39 -2
23 26 -29
24 26 -29
25 26 -29
26 26 -29
27 26 -29
28 26 -29
29 26 -29
30 26 -29
31 -15 6
32 -15 6
33 -15 6
34 -15 6
35 -15 6
36 28 0
37 28 0
38 28 0
39 28 0
40 28 0
41 28 0
42 28 0
43 28 0
44 -9 42
45 -9 42
46 -9 42
47 -9 42
48 -9 42
49 -9 42
50 -9 42
51 -9 42
52 -21 23
53 -21 23
54 -21 23
55 -43 26
56 -43 26
57 -43 26
58 -43 26
59 29 -36
60 29 -36
61 29 -36
62 29 -36
63 29 -36
64 29 -36
65 -40 -16
66 -40 -16
67 -40 -16
68 -40 -16
69 -40 -16
70 -40 -16
71 -40 -16
72 -40 -16
73 -40 -16
74 1 -43
75 1 -43
76 1 -43
77 1 -43
78 1 -43
79 19 -38
80 19 -38
81 19 -38
82 19 -38
83 26 21
84 26 21
85 26 21
86 26 21
87 26 21
88 26 21
89 26 21
90 26 21
91 47 25
92 47 25
93 47 25
94 47 -8
95 47 -8
96 47 -8
97 47 -8
98 47 -8
99 -18 -34
100 -18 -34
101 31 -4
102 31 -4
103 31 -4
104 32 40
105 32 40
106 32 40
107 32 40
108 12 25
109 12 25
110 12 25
111 12 25
112 -41 0
113 -41 0
114 -41 0
115 -41 0
116 -41 0
117 -41 0
118 -41 0
119 -41 0
120 -22 22
121 -22 22
122 -22 22
123 -22 22
124 -22 22
125 -22 22
126 8 25
127 -5 -20
128 -5 -20
129 -5 -20
130 -5 -20
131 -5 -20
132 -5 -20
133 -5 -20
134 -5 -20
135 25 4
136 25 4
137 25 4
138 25 4
139 48 44
140 48 44
141 48 44
142 48 44
143 48 44
144 48 44
145 21 -42
146 21 -42
147 21 -42
148 21 -42
149 21 -42
150 21 -42
151 10 -38
152 10 -38
153 10 -38
154 10 -38
155 10 -38
156 10 -38
157 10 -38
158 10 -38
159 17 -22
160 17 -22
161 -29 26
162 -29 26
163 -29 26
164 -29 26
165 -29 26
166 -2 -13
167 -2 -13
168 -2 -13
169 -2 -13
170 -2 -13
171 35 48
172 35 48
173 35 48
174 -50 9
175 -50 9
176 -23 1
177 -23 1
178 -23 1
179 -23 1
180 -23 1
181 -23 1
182 -23 1
183 13 -19
184 13 -19
185 13 -19
186 13 -19
187 13 -19
188 13 -19
189 -2 29
190 -2 29
191 -33 -10
192 -33 -10
193 -33 -10
194 -33 -10
195 -33 -10
196 -33 -10
197 -34 37
198 -34 37
199 -34 37
200 -34 37
201 19 37
202 19 37
203 19 37
204 19 37
205 39 -8
206 39 -8
207 39 -8
208 39 -8
209 23 -48
210 23 -48
211 23 -48
212 23 -48
213 23 -48
214 23 -48
215 23 -48
216 23 -48
217 -39 18
218 -39 18
219 -39 18
220 -25 -24
221 -25 -24
222 -25 -24
223 -25 -24
224 -25 -24
225 -25 -24
226 -25 -24
227 -6 44
228 -6 44
229 -6 44
230 -6 44
231 -6 44
232 -6 44
233 -6 44
234 -45 -32
235 -45 -32
236 -45 -32
237 -45 -32
238 -45 -32
239 -45 -32
240 23 -13
241 23 -13
242 23 -13
243 23 -13
244 23 -13
245 23 -13
246 23 -13
247 23 -13
248 23 -13
249 -23 -47
250 -23 -47
251 -23 -47
252 -23 -47
253 -23 -47
254 -23 -47
255 -23 -47
256 -5 27
257 -5 27
258 -5 27
259 -5 27
260 -5 27
261 -47 -13
262 -47 -13
263 -47 -13
264 -47 -13
265 -47 -13
266 -47 -13
267 -47 -13
268 -47 -13
269 -30 -20
270 -30 -20
271 -30 -20
272 -30 -20
273 -30 -20
274 -30 -20
275 -41 -26
276 -41 -26
277 -41 -26
278 -9 -9
279 -9 -9
280 -9 -9
281 -9 -9
282 10 13
283 10 13
284 10 13
285 -47 15
286 -47 15
287 -47 15
288 -47 15
289 -47 15
290 -47 15
291 49 -22
292 49 -22
293 49 -22
294 49 -22
295 49 -22
296 49 -22
297 49 -22
298 49 -22
299 -5 -40
300 -5 -40
301 13 -33
302 -8 31
303 -8 31
304 -8 31
305 -8 31
306 -8 31
307 -8 31
308 -8 31
309 27 41
310 27 41
311 27 41
312 27 41
313 21 -33
314 21 -33
315 21 -33
316 21 -33
317 -20 49
318 -20 49
319 -20 49
320 -20 49
321 -20 49
322 -20 49
323 18 47
324 18 47
325 -29 -45
326 -29 -45
327 -29 -45
328 -29 -45
329 -29 -45
330 -29 -45
331 -7 -35
332 -7 -35
333 -7 -35
334 -7 -35
335 -7 -35
336 -7 -35
337 14 38
338 14 38
339 14 38
340 -40 12
341 -40 12
342 -40 12
343 -40 12
344 -40 12
345 7 -7
346 7 -7
347 7 -7
348 7 -7
349 41 36
350 41 36
351 41 36
352 41 36
353 41 36
354 41 36
355 19 11
356 19 11
357 19 11
358 -22 -33
359 -22 -33
360 -22 -33
361 -22 -33
362 -22 -33
363 -22 -33
364 -22 -33
365 -2 1
366 -2 1
367 -2 1
368 -2 1
369 -2 1
370 7 -25
371 7 -25
372 7 -25
373 7 -25
374 7 -25
375 42 -17
376 42 -17
377 42 -17
378 42 -17
379 42 -17
380 42 -17
381 42 -17
382 42 -17
DEMAND_SECTION
1 0
2 28
3 14
4 7
5 14
6 7
7 1
8 1
9 1
10 28
11 14
12 7
13 1
14 28
15 28
16 7
17 28
18 1
19 1
20 1
21 1
22 1
23 28
24 7
25 1
26 1
27 1
28 1
29 1
30 1
31 28
32 28
33 7
34 1
35 1
36 28
37 28
38 1
39 1
40 1
41 1
42 1
43 1
44 28
45 14
46 7
47 1
48 1
49 1
50 1
51 1
52 28
53 28
54 14
55 28
56 14
57 7
58 1
59 14
60 7
61 1
62 1
63 1
64 1
65 28
66 14
67 7
68 1
69 1
70 1
71 1
72 1
73 1
74 28
75 1
76 1
77 1
78 1
79 28
80 14
81 7
82 1
83 28
84 7
85 1
86 1
87 1
88 1
89 1
90 1
91 28
92 14
93 1
94 28
95 14
96 7
97 1
98 1
99 28
100 28
101 28
102 7
103 1
104 28
105 14
106 7
107 1
108 14
109 1
110 1
111 1
112 28
113 28
114 7
115 1
116 1
117 1
118 1
119 1
120 28
121 28
122 1
123 1
124 1
125 1
126 28
127 14
128 7
129 1
130 1
131 1
132 1
133 1
134 1
135 28
136 28
137 1
138 1
139 14
140 7
141 1
142 1
143 1
144 1
145 28
146 1
147 1
148 1
149 1
150 1
151 14
152 7
153 1
154 1
155 1
156 1
157 1
158 1
159 14
160 7
161 28
162 14
163 7
164 1
165 1
166 28
167 1
168 1
169 1
170 1
171 28
172 7
173 1
174 14
175 7
176 28
177 14
178 7
179 1
180 1
181 1
182 1
183 28
184 7
185 1
186 1
187 1
188 1
189 28
190 14
191 28
192 14
193 1
194 1
195 1
196 1
197 14
198 7
199 1
200 1
201 28
202 14
203 7
204 1
205 14
206 7
207 1
208 1
209 28
210 28
211 1
212 1
213 1
214 1
215 1
216 1
217 28
218 28
219 14
220 14
221 1
222 1
223 1
224 1
225 1
226 1
227 28
228 28
229 1
230 1
231 1
232 1
233 1
234 14
235 1
236 1
237 1
238 1
239 1
240 28
241 14
242 7
243 1
244 1
245 1
246 1
247 1
248 1
249 14
250 7
251 1
252 1
253 1
254 1
255 1
256 28
257 28
258 7
259 1
260 1
261 14
262 7
263 1
264 1
265 1
266 1
267 1
268 1
269 14
270 7
271 1
272 1
273 1
274 1
275 28
276 28
277 14
278 28
279 14
280 7
281 1
282 28
283 28
284 14
285 28
286 28
287 7
288 1
289 1
290 1
291 28
292 28
293 1
294 1
295 1
296 1
297 1
298 1
299 28
300 28
301 28
302 28
303 14
304 7
305 1
306 1
307 1
308 1
309 28
310 1
311 1
312 1
313 28
314 1
315 1
316 1
317 28
318 28
319 7
320 1
321 1
322 1
323 28
324 7
325 14
326 1
327 1
328 1
329 1
330 1
331 28
332 1
333 1
334 1
335 1
336 1
337 28
338 14
339 1
340 14
341 1
342 1
343 1
344 1
345 28
346 1
347 1
348 1
349 14
350 7
351 1
352 1
353 1
354 1
355 28
356 28
357 14
358 28
359 7
360 1
361 1
362 1
363 1
364 1
365 28
366 7
367 1
368 1
369 1
370 28
371 28
372 7
373 1
374 1
375 28
376 14
377 7
378 1
379 1
380 1
381 1
382 1
DEPOT_SECTION
1
-1
EOF