SDVRP instances/custom_instances/p02_26_split0.sol
381 -3 1 2 90 92 91 88 85 84 82 89 83 87 86 -5 7 73 75 77 74 76 298 299 331 334 330 332 335 333 -8 4 6 154 151 157 155 156 150 152 153 300 370 371 369 373 372 -30 32 33 31 34 278 277 168 165 167 169 166 -37 41 35 42 40 39 36 38 136 135 134 137 -53 51 52 123 120 119 121 122 124 -56 54 57 55 284 285 287 289 288 286 173 174 -79 78 80 81 147 148 146 149 145 144 312 314 315 313 159 158 187 185 184 186 -100 102 101 376 374 375 381 377 379 378 380 239 240 244 243 245 -106 103 104 105 170 171 172 143 139 142 140 141 138 352 350 353 351 349 348 -108 110 109 107 322 323 12 11 9 10 310 309 311 308 -125 337 336 338 200 201 202 203 -128 131 132 130 129 127 126 133 98 99 363 360 361 359 362 358 357 279 280 -163 164 162 160 161 199 197 196 198 320 319 321 318 316 317 -176 177 175 178 181 180 339 341 343 342 340 217 216 218 -179 114 116 112 117 113 111 118 115 21 17 20 18 19 16 194 192 190 195 193 -183 182 13 14 15 344 346 345 347 -188 189 303 304 301 259 258 255 256 -191 260 266 267 262 265 261 263 264 66 64 65 70 69 68 67 72 71 269 268 272 223 220 225 224 221 222 219 -205 207 206 204 97 95 96 94 93 292 291 293 296 297 294 290 295 -212 210 208 215 214 209 213 211 62 58 61 60 59 63 22 25 24 23 27 26 28 29 242 246 247 241 -248 252 251 253 250 254 249 325 326 328 329 327 324 235 237 236 233 238 234 276 275 274 270 271 273 -257 227 230 232 229 228 226 231 50 49 44 43 45 46 47 48 306 307 302 305 -282 283 281 355 354 356 -364 -365 366 368 367 0 





OBJ=
2226.961
BEST_KNOWN=
0.000